Solver command line: ['/usr/local/bin/gurobi.sh']

Set parameter WLSAccessID
Set parameter WLSSecret
Set parameter LicenseID to value 2606900
Academic license 2606900 - for non-commercial use only - registered to so___@htwk-leipzig.de
Read LP format model from file /var/folders/jf/5sh4zzv94dxbcz8g7tg2jq5h0000gn/T/tmpslfmmp9j.pyomo.lp
Reading time = 3.93 seconds
objective: 948674 rows, 878399 columns, 2099360 nonzeros
Set parameter TimeLimit to value 5000
Set parameter MIPGap to value 0.08
Gurobi Optimizer version 12.0.1 build v12.0.1rc0 (mac64[rosetta2] - Darwin 24.3.0 24D70)

CPU model: Apple M3
Thread count: 8 physical cores, 8 logical processors, using up to 8 threads

Non-default parameters:
TimeLimit  5000
MIPGap  0.08

Academic license 2606900 - for non-commercial use only - registered to so___@htwk-leipzig.de
Optimize a model with 948674 rows, 878399 columns and 2099360 nonzeros
Model fingerprint: 0xf81cd176
Model has 8783 quadratic constraints
Variable types: 755424 continuous, 122975 integer (105408 binary)
Coefficient statistics:
  Matrix range     [6e-03, 1e+03]
  QMatrix range    [1e+00, 1e+00]
  Objective range  [1e-02, 4e+02]
  Bounds range     [1e+00, 3e+00]
  RHS range        [8e-05, 1e+04]
Presolve removed 781800 rows and 676389 columns
Presolve time: 0.86s
Presolved: 166874 rows, 202010 columns, 553336 nonzeros
Variable types: 131741 continuous, 70269 integer (61485 binary)
Performing another presolve...
Presolve removed 70271 rows and 70271 columns (presolve time = 9s)...
Presolve removed 70271 rows and 70271 columns
Presolve time: 9.12s
Deterministic concurrent LP optimizer: primal and dual simplex
Showing primal log only...


Root simplex log...

Iteration    Objective       Primal Inf.    Dual Inf.      Time
       0    9.8532138e+07   4.142204e+07   7.304584e+13     11s
Concurrent spin time: 0.00s

Solved with dual simplex

Root simplex log...

Iteration    Objective       Primal Inf.    Dual Inf.      Time
   76686    1.0983318e+08   0.000000e+00   0.000000e+00     14s

Root relaxation: objective 1.098332e+08, 76686 iterations, 3.35 seconds (2.30 work units)
Total elapsed time = 14.43s (DegenMoves)

    Nodes    |    Current Node    |     Objective Bounds      |     Work
 Expl Unexpl |  Obj  Depth IntInf | Incumbent    BestBd   Gap | It/Node Time

     0     0 1.0983e+08    0  202          - 1.0983e+08      -     -   15s
H    0     0                    1.100165e+08 1.0983e+08  0.17%     -   16s

Explored 1 nodes (78789 simplex iterations) in 50.42 seconds (15.13 work units)
Thread count was 8 (of 8 available processors)

Solution count 1: 1.10016e+08 

Optimal solution found (tolerance 8.00e-02)
Best objective 1.100164659452e+08, best bound 1.098331808273e+08, gap 0.1666%

